
Gurobi 7.0.2 (linux64, Matlab) logging started Sun Sep  2 08:55:44 2018


Gurobi 7.0.2 (linux64) logging started Sun Sep  2 08:55:44 2018

Optimize a model with 13453 rows, 76462 columns and 283284 nonzeros
Coefficient statistics:
  Matrix range     [1e+00, 2e+02]
  Objective range  [4e+00, 1e+01]
  Bounds range     [1e+00, 2e+02]
  RHS range        [1e+00, 8e+03]
Iteration    Objective       Primal Inf.    Dual Inf.      Time
       0    9.6250000e+01   0.000000e+00   0.000000e+00      0s

Solved in 0 iterations and 0.02 seconds
Optimal objective  9.625000000e+01
